198 61 137 167 123 177 174 145 50 40 91 79 85 142 133 159 152 197 42 158 130 31 33 113 54 187 182 172 6 184 18 147 108 101 193 1 47 166 51 116 65 74 119 146 0 83 23 169 43 192 57 94 180 60 26 62 46 138 107 121 13 28 35 168 98 93 139 4 58 122 100 7 153 111 181 16 68 32 103 126 196 36 78 59 165 12 135 149 22 104 89 3 127 162 8 80 129 189 9 67 86 92 151 53 37 161 136 114 102 66 44 112 34 84 20 73 118 143 144 49 11 15 134 195 106 199 148 69 10 30 109 81 115 183 5 128 170 178 24 141 185 55 125 132 88 188 110 87 45 97 150 48 39 2 71 99 171 19 194 163 186 131 77 176 157 27 120 191 52 179 56 105 38 75 82 175 21 190 90 76 140 41 64 17 173 96 117 160 155 29 14 63 72 124 25 156 164 70 95 154 

